1000

117 107 61 88 23 56 55 39 91 117 144 3 82 13 148 143 113 70 6 25 
92 143 76 101 86 76 34 78 8 119 64 60 104 133 19 140 87 8 80 33 
112 116 110 0 41 77 119 90 21 99 142 125 31 27 82 81 77 31 59 108 
129 72 65 84 81 83 4 94 61 11 98 113 79 6 134 43 13 25 32 117 
71 10 121 112 118 52 86 11 59 33 111 17 3 141 72 32 29 147 61 80

62 44 90 147 150 39 38 46 131 126 56 142 130 137 59 55 25 97 81 4 
92 62 1 109 27 7 26 142 9 25 149 77 101 23 84 112 134 66 43 15 
86 18 79 100 134 7 60 128 132 144 43 65 55 3 124 105 76 91 95 141 
32 99 96 34 115 92 106 29 20 77 21 71 113 132 13 44 62 71 2 25 
81 121 94 76 111 76 26 127 71 95 25 114 62 91 83 94 87 29 139 11 